(declare-fun bvlambda_69_ ()Bool         )
(declare-fun bvlambda_72_ () (_ BitVec 9))
(declare-fun a220 () (Array (_ BitVec 1) (_ BitVec 12)))
(assert
(let (($e37 (_ bv0 11)))
(let (($e38 (_ bv0 2)))
(let (($e309 (concat $e37 false              )))
(let (($e314 (concat        $e38 false        )))
(let (($e315 (concat $e314 bvlambda_72_)))
(let (($e317 (store a220 true        $e315)))
(let (($e318 (store $e317 bvlambda_69_ $e309)))
(
                 extract(select $e318 true)
                                                                                                                                                                                                                                                                                                                                                                                                                                                                                                                                                                                                                                                                                                                                                                                                                                                                                                                                                                                                                                                                                                                                                                                                                                                                                                                                                                                                                                                                                                                                                                                                                                                                                                                                                                                                                                                                                                                                                                                                                                                                                                                                                                                                                                                                                                                                                                                                                                                                                                                                                                                                                                                                                                                                                                                                                                                                                                                                                                                                                                                                   )                                                                                                                                                                                                                                                                              )) ))    )                                                                                                                                                               ))                                    )
